c Output_time 26.03.2020 18:13:19_+0100 1585242799941823211
c ** Program information **
c program_name                          "QBRG_debug"
c version                               "0.3.20"
c date                                  "25.3.2020"
c gid_id                                "673970833836058123f633335630c185360d632e"
c author                                "Oliver Kullmann"
c url                                   "https://github.com/OKullmann/oklibrary/blob/master/Satisfiability/Transformers/Generators/Random/QBRG.cpp"
c ** Machine information **
c machine_name                          "chyna-Lenovo-G50-70"
c bogomips                              3791.08
c ** Compilation information **
c compiler_version                      "g++ 7.5.0"
c compilation_date                      "Mar_26_2020 11:16:30"
c compilation_options                   "--std=c++17 -pedantic -fmax-errors=5 -Wall -Wextra -g -D_GLIBCXX_DEBUG"
c NDEBUG                                0
c OPTIMIZE                              0
c ** Parameters **
c command-line                          "./QBRG_debug" "e40 a40 40" "412*1,1|2-2,1|3-3,1" "" "1,t" ""
c output                                "QuBlRaGe_120_412_1585242799859540550.qdimacs"
c options                               "filtered,renamed"
c num_quantifier_blocks                 3
c  quantifier_blocks                    1:e1-40 2:a41-80 3:e81-120
c num_clause-blocks                     1
c  clause-blocks                        412 * {1-40,1,1/2} | {41-80,1,1/2} | {81-120,1,1/2}
c num_e-seeds                           30+2=32
c  e-seeds                              1 0 1 0 4 120 2 40 1 40 0 40 1 412 3 1 1 1 1 2 2 2 1 1 2 3 3 1 1 2 1 1585242799859539860
p cnf 120 412
e 1 2 3 4 5 6 7 8 9 10 11 12 13 14 15 16 17 18 19 20 21 22 23 24 25 26 27 28 29 30 31 32 33 34 35 36 37 38 39 40 0
a 41 42 43 44 45 46 47 48 49 50 51 52 53 54 55 56 57 58 59 60 61 62 63 64 65 66 67 68 69 70 71 72 73 74 75 76 77 78 79 80 0
e 81 82 83 84 85 86 87 88 89 90 91 92 93 94 95 96 97 98 99 100 101 102 103 104 105 106 107 108 109 110 111 112 113 114 115 116 117 118 119 120 0
34 -45 -81 0
7 -54 -81 0
3 -61 -81 0
-37 -62 -81 0
-14 42 81 0
-7 52 81 0
-28 -55 81 0
26 -69 81 0
18 73 81 0
2 -75 81 0
26 44 -82 0
4 45 -82 0
27 -52 -82 0
-13 -77 -82 0
11 43 82 0
5 50 82 0
38 -58 82 0
33 60 82 0
-36 67 82 0
19 -79 82 0
-23 51 -83 0
13 -55 -83 0
-8 -57 -83 0
-40 -64 -83 0
2 45 83 0
3 -50 83 0
2 -55 83 0
17 69 83 0
26 49 -84 0
22 -52 -84 0
-11 -55 -84 0
-25 56 -84 0
4 -68 -84 0
13 68 -84 0
35 43 84 0
-17 47 84 0
-30 50 84 0
-38 -52 84 0
-19 -57 84 0
19 -60 84 0
6 70 84 0
-8 -71 84 0
39 -80 84 0
9 43 -85 0
9 -47 -85 0
-36 -48 -85 0
16 -70 -85 0
19 -77 -85 0
16 51 85 0
-4 -54 85 0
36 56 85 0
-6 -61 85 0
-34 45 -86 0
9 47 -86 0
34 50 -86 0
13 -63 -86 0
28 -74 -86 0
26 -41 86 0
-16 -42 86 0
-1 44 86 0
-28 48 86 0
14 49 86 0
-35 -59 86 0
-4 -74 86 0
-9 52 -87 0
-15 78 -87 0
-2 79 -87 0
-31 46 87 0
-38 59 87 0
-15 65 87 0
-20 65 87 0
-15 72 87 0
-19 -73 87 0
3 -76 87 0
-33 -76 87 0
-21 -61 -88 0
-8 -73 -88 0
13 78 -88 0
-19 50 88 0
-11 -67 88 0
-36 -77 88 0
7 -52 -89 0
-16 63 -89 0
23 -80 -89 0
-16 47 89 0
-27 49 89 0
33 -50 89 0
9 -76 89 0
20 77 89 0
20 -41 -90 0
-21 -42 -90 0
25 63 -90 0
4 -68 -90 0
29 70 -90 0
38 -79 -90 0
-7 -80 -90 0
35 -43 90 0
33 -44 90 0
20 -45 90 0
27 -53 90 0
36 -76 90 0
-37 -78 90 0
-5 -57 -91 0
-6 -59 91 0
1 -47 -92 0
-15 -58 -92 0
18 -79 -92 0
-20 43 92 0
12 60 92 0
38 70 92 0
11 -68 -93 0
8 -69 -93 0
36 69 -93 0
-13 -77 -93 0
13 -42 93 0
-5 48 93 0
-25 -55 93 0
27 56 93 0
-33 68 93 0
12 41 -94 0
-3 -47 -94 0
-17 48 -94 0
-29 61 -94 0
37 -67 -94 0
31 67 -94 0
20 -76 -94 0
-17 -54 94 0
-5 -61 94 0
20 71 94 0
1 74 94 0
9 -79 94 0
33 -80 94 0
31 43 -95 0
-3 -50 -95 0
-35 52 -95 0
-13 -74 -95 0
-21 79 -95 0
-26 43 95 0
-37 45 95 0
15 -56 95 0
-4 59 95 0
13 77 95 0
5 -78 95 0
27 -50 -96 0
26 54 -96 0
23 57 -96 0
18 58 -96 0
25 -66 -96 0
-12 41 96 0
-31 -47 96 0
-10 49 96 0
39 54 96 0
-14 67 96 0
13 47 -97 0
-36 54 -97 0
16 60 -97 0
-18 61 -97 0
1 74 -97 0
-8 52 97 0
-10 62 97 0
-9 -75 97 0
-26 -75 97 0
3 -79 97 0
-36 -41 -98 0
-24 -55 -98 0
-36 -58 -98 0
-1 59 -98 0
-15 79 -98 0
15 50 98 0
22 51 98 0
-14 58 98 0
40 -65 98 0
3 -80 98 0
-5 61 -99 0
-37 61 -99 0
-31 -79 -99 0
40 49 99 0
19 52 99 0
-31 54 99 0
24 -60 99 0
-35 -64 99 0
23 45 -100 0
-1 -48 -100 0
11 51 -100 0
23 -63 -100 0
-20 -67 -100 0
-21 -68 -100 0
9 -75 -100 0
31 -75 -100 0
-19 80 -100 0
6 43 100 0
-35 -50 100 0
-21 53 100 0
34 -62 100 0
-35 76 100 0
-35 64 -101 0
8 -65 -101 0
-37 66 -101 0
-23 -73 -101 0
-17 -75 -101 0
33 -41 101 0
-7 42 101 0
-25 -46 101 0
-7 53 101 0
-32 -71 101 0
-27 74 101 0
-30 -76 101 0
32 43 -102 0
26 52 -102 0
-36 -53 -102 0
-5 57 -102 0
26 -59 -102 0
-9 -68 -102 0
-39 78 -102 0
-37 -80 -102 0
-22 -49 102 0
-19 -57 102 0
18 80 102 0
29 -47 -103 0
6 -49 -103 0
31 -58 -103 0
4 -68 -103 0
19 41 103 0
27 -50 103 0
3 -51 103 0
26 -58 103 0
7 62 103 0
-21 -67 103 0
-3 70 103 0
38 -45 -104 0
-19 60 -104 0
-29 46 104 0
-2 64 104 0
6 75 104 0
-13 -50 -105 0
17 50 -105 0
-6 62 -105 0
-28 64 -105 0
14 -70 -105 0
23 -59 105 0
18 -62 105 0
22 70 105 0
18 -75 105 0
-25 56 -106 0
36 44 106 0
24 45 106 0
39 -56 106 0
-15 66 106 0
36 66 106 0
-17 -45 -107 0
13 45 -107 0
-19 47 -107 0
37 -72 -107 0
18 -76 -107 0
14 -44 107 0
2 49 107 0
-11 59 107 0
21 66 107 0
30 77 107 0
17 -42 -108 0
26 45 -108 0
-22 -68 -108 0
7 69 -108 0
-13 73 -108 0
-9 75 -108 0
-4 -51 108 0
19 -58 108 0
12 -59 108 0
-1 64 108 0
-14 64 108 0
27 -67 108 0
-7 70 108 0
-17 -73 108 0
26 -79 108 0
-40 42 -109 0
8 52 -109 0
7 -64 -109 0
11 -42 109 0
-25 53 109 0
33 58 109 0
15 -64 109 0
14 -55 -110 0
-5 -60 -110 0
-3 -62 -110 0
-23 66 -110 0
-4 68 -110 0
-8 70 -110 0
-12 70 -110 0
37 66 110 0
26 -77 110 0
39 -44 -111 0
37 51 -111 0
26 -68 -111 0
-29 -77 -111 0
37 46 111 0
8 47 111 0
16 -54 111 0
-20 56 111 0
23 58 111 0
7 -63 111 0
9 43 -112 0
-38 -73 -112 0
13 -75 -112 0
17 77 -112 0
19 78 -112 0
25 -41 112 0
-38 -41 112 0
27 43 112 0
21 -46 112 0
17 -50 112 0
-6 -57 112 0
-2 57 112 0
-22 -59 112 0
-1 63 112 0
-32 67 112 0
27 -74 112 0
-19 43 -113 0
-10 -52 -113 0
33 -55 -113 0
37 -57 -113 0
7 -70 -113 0
-40 -74 -113 0
20 -76 -113 0
-7 -79 -113 0
-17 60 113 0
-22 64 113 0
-15 68 113 0
26 73 113 0
-2 55 -114 0
1 -60 -114 0
-18 62 -114 0
30 69 -114 0
23 70 -114 0
-31 -72 -114 0
-37 72 -114 0
-30 -55 114 0
-17 63 114 0
18 69 114 0
-33 72 114 0
-34 76 114 0
36 79 114 0
-22 80 114 0
2 49 -115 0
38 -56 -115 0
-1 -57 -115 0
11 58 -115 0
-14 -68 -115 0
3 -69 -115 0
-7 -69 -115 0
-24 70 -115 0
-13 -44 115 0
-25 -44 115 0
25 54 115 0
11 55 115 0
16 -60 115 0
-10 66 115 0
-5 69 115 0
-17 -80 115 0
9 -45 -116 0
-3 -47 -116 0
-36 -47 -116 0
20 48 -116 0
-20 -65 -116 0
-18 79 -116 0
-34 48 116 0
27 52 116 0
-33 -58 116 0
4 59 116 0
6 -73 116 0
-10 41 -117 0
2 43 -117 0
21 -55 -117 0
13 56 -117 0
26 79 -117 0
9 42 117 0
23 -69 117 0
18 77 117 0
-30 41 -118 0
-27 -44 -118 0
4 65 -118 0
9 66 -118 0
-35 68 -118 0
-8 71 -118 0
-25 77 -118 0
35 78 -118 0
27 80 -118 0
9 51 118 0
-12 -44 -119 0
20 48 -119 0
3 -49 -119 0
17 57 -119 0
28 67 -119 0
11 -69 -119 0
-12 46 119 0
-37 -52 119 0
-29 57 119 0
-4 -62 119 0
-10 -71 119 0
12 72 119 0
37 -76 119 0
37 -80 119 0
29 -52 -120 0
33 -52 -120 0
33 54 -120 0
-17 59 -120 0
-4 -63 -120 0
-36 68 -120 0
-27 69 -120 0
-33 -74 -120 0
-40 -74 -120 0
11 77 -120 0
-17 -60 120 0
